(set-logic HORN)
(declare-datatypes ((Nat_0 0)) (((Z_0 ) (Z_1 (unS_0 Nat_0)))))
(declare-fun diseqNat_0 (Nat_0 Nat_0) Bool)
(declare-fun add_0 (Nat_0 Nat_0 Nat_0) Bool)
(declare-fun minus_0 (Nat_0 Nat_0 Nat_0) Bool)
(declare-fun le_0 (Nat_0 Nat_0) Bool)
(declare-fun gt_0 (Nat_0 Nat_0) Bool)
(declare-fun m_0 (Nat_0 Nat_0) Bool)
(assert (forall ((x_13 Nat_0))
	(diseqNat_0 Z_0 (Z_1 x_13))))
(assert (forall ((x_14 Nat_0))
	(diseqNat_0 (Z_1 x_14) Z_0)))
(assert (forall ((x_15 Nat_0) (x_16 Nat_0))
	(=> (diseqNat_0 x_15 x_16) (diseqNat_0 (Z_1 x_15) (Z_1 x_16)))))
(assert (forall ((y_0 Nat_0))
	(add_0 y_0 Z_0 y_0)))
(assert (forall ((r_0 Nat_0) (x_6 Nat_0) (y_0 Nat_0))
	(=> (add_0 r_0 x_6 y_0) (add_0 (Z_1 r_0) (Z_1 x_6) y_0))))
(assert (forall ((y_0 Nat_0))
	(minus_0 Z_0 Z_0 y_0)))
(assert (forall ((r_0 Nat_0) (x_6 Nat_0) (y_0 Nat_0))
	(=> (minus_0 r_0 x_6 y_0) (minus_0 (Z_1 r_0) (Z_1 x_6) y_0))))
(assert (forall ((y_0 Nat_0))
	(le_0 Z_0 y_0)))
(assert (forall ((x_6 Nat_0) (y_0 Nat_0))
	(=> (le_0 x_6 y_0) (le_0 (Z_1 x_6) (Z_1 y_0)))))
(assert (forall ((y_0 Nat_0))
	(gt_0 (Z_1 y_0) Z_0)))
(assert (forall ((x_6 Nat_0) (y_0 Nat_0))
	(=> (gt_0 x_6 y_0) (gt_0 (Z_1 x_6) (Z_1 y_0)))))
(assert (forall ((x_1 Nat_0) (x_0 Nat_0))
	(=> (and (gt_0 x_0 (Z_1 (Z_1 (Z_1 (Z_1 (Z_1 (Z_1 (Z_1 (Z_1 (Z_1 (Z_1 (Z_1 (Z_1 (Z_1 (Z_1 (Z_1 (Z_1 (Z_1 (Z_1 (Z_1 (Z_1 (Z_1 (Z_1 (Z_1 (Z_1 (Z_1 (Z_1 (Z_1 (Z_1 (Z_1 (Z_1 (Z_1 (Z_1 (Z_1 (Z_1 (Z_1 (Z_1 (Z_1 (Z_1 (Z_1 (Z_1 (Z_1 (Z_1 (Z_1 (Z_1 (Z_1 (Z_1 (Z_1 (Z_1 (Z_1 (Z_1 (Z_1 (Z_1 (Z_1 (Z_1 (Z_1 (Z_1 (Z_1 (Z_1 (Z_1 (Z_1 (Z_1 (Z_1 (Z_1 (Z_1 (Z_1 (Z_1 (Z_1 (Z_1 (Z_1 (Z_1 (Z_1 (Z_1 (Z_1 (Z_1 (Z_1 (Z_1 (Z_1 (Z_1 (Z_1 (Z_1 (Z_1 (Z_1 (Z_1 (Z_1 (Z_1 (Z_1 (Z_1 (Z_1 (Z_1 (Z_1 (Z_1 (Z_1 (Z_1 (Z_1 (Z_1 (Z_1 (Z_1 (Z_1 (Z_1 (Z_1 Z_0))))))))))))))))))))))))))))))))))))))))))))))))))))))))))))))))))))))))))))))))))))))))))))))))))))) (minus_0 x_1 x_0 (Z_1 (Z_1 (Z_1 (Z_1 (Z_1 (Z_1 (Z_1 (Z_1 (Z_1 (Z_1 Z_0)))))))))))) (m_0 x_1 x_0))))
(assert (forall ((x_8 Nat_0) (x_2 Nat_0) (x_3 Nat_0) (x_0 Nat_0))
	(=> (and (le_0 x_0 (Z_1 (Z_1 (Z_1 (Z_1 (Z_1 (Z_1 (Z_1 (Z_1 (Z_1 (Z_1 (Z_1 (Z_1 (Z_1 (Z_1 (Z_1 (Z_1 (Z_1 (Z_1 (Z_1 (Z_1 (Z_1 (Z_1 (Z_1 (Z_1 (Z_1 (Z_1 (Z_1 (Z_1 (Z_1 (Z_1 (Z_1 (Z_1 (Z_1 (Z_1 (Z_1 (Z_1 (Z_1 (Z_1 (Z_1 (Z_1 (Z_1 (Z_1 (Z_1 (Z_1 (Z_1 (Z_1 (Z_1 (Z_1 (Z_1 (Z_1 (Z_1 (Z_1 (Z_1 (Z_1 (Z_1 (Z_1 (Z_1 (Z_1 (Z_1 (Z_1 (Z_1 (Z_1 (Z_1 (Z_1 (Z_1 (Z_1 (Z_1 (Z_1 (Z_1 (Z_1 (Z_1 (Z_1 (Z_1 (Z_1 (Z_1 (Z_1 (Z_1 (Z_1 (Z_1 (Z_1 (Z_1 (Z_1 (Z_1 (Z_1 (Z_1 (Z_1 (Z_1 (Z_1 (Z_1 (Z_1 (Z_1 (Z_1 (Z_1 (Z_1 (Z_1 (Z_1 (Z_1 (Z_1 (Z_1 (Z_1 Z_0))))))))))))))))))))))))))))))))))))))))))))))))))))))))))))))))))))))))))))))))))))))))))))))))))))) (m_0 x_3 x_8) (m_0 x_2 x_3) (add_0 x_8 x_0 (Z_1 (Z_1 (Z_1 (Z_1 (Z_1 (Z_1 (Z_1 (Z_1 (Z_1 (Z_1 (Z_1 Z_0))))))))))))) (m_0 x_2 x_0))))
(assert (forall ((x_5 Nat_0) (n_0 Nat_0))
	(=> (and (diseqNat_0 x_5 (Z_1 (Z_1 (Z_1 (Z_1 (Z_1 (Z_1 (Z_1 (Z_1 (Z_1 (Z_1 (Z_1 (Z_1 (Z_1 (Z_1 (Z_1 (Z_1 (Z_1 (Z_1 (Z_1 (Z_1 (Z_1 (Z_1 (Z_1 (Z_1 (Z_1 (Z_1 (Z_1 (Z_1 (Z_1 (Z_1 (Z_1 (Z_1 (Z_1 (Z_1 (Z_1 (Z_1 (Z_1 (Z_1 (Z_1 (Z_1 (Z_1 (Z_1 (Z_1 (Z_1 (Z_1 (Z_1 (Z_1 (Z_1 (Z_1 (Z_1 (Z_1 (Z_1 (Z_1 (Z_1 (Z_1 (Z_1 (Z_1 (Z_1 (Z_1 (Z_1 (Z_1 (Z_1 (Z_1 (Z_1 (Z_1 (Z_1 (Z_1 (Z_1 (Z_1 (Z_1 (Z_1 (Z_1 (Z_1 (Z_1 (Z_1 (Z_1 (Z_1 (Z_1 (Z_1 (Z_1 (Z_1 (Z_1 (Z_1 (Z_1 (Z_1 (Z_1 (Z_1 (Z_1 (Z_1 (Z_1 (Z_1 Z_0)))))))))))))))))))))))))))))))))))))))))))))))))))))))))))))))))))))))))))))))))))))))))))) (le_0 n_0 (Z_1 (Z_1 (Z_1 (Z_1 (Z_1 (Z_1 (Z_1 (Z_1 (Z_1 (Z_1 (Z_1 (Z_1 (Z_1 (Z_1 (Z_1 (Z_1 (Z_1 (Z_1 (Z_1 (Z_1 (Z_1 (Z_1 (Z_1 (Z_1 (Z_1 (Z_1 (Z_1 (Z_1 (Z_1 (Z_1 (Z_1 (Z_1 (Z_1 (Z_1 (Z_1 (Z_1 (Z_1 (Z_1 (Z_1 (Z_1 (Z_1 (Z_1 (Z_1 (Z_1 (Z_1 (Z_1 (Z_1 (Z_1 (Z_1 (Z_1 (Z_1 (Z_1 (Z_1 (Z_1 (Z_1 (Z_1 (Z_1 (Z_1 (Z_1 (Z_1 (Z_1 (Z_1 (Z_1 (Z_1 (Z_1 (Z_1 (Z_1 (Z_1 (Z_1 (Z_1 (Z_1 (Z_1 (Z_1 (Z_1 (Z_1 (Z_1 (Z_1 (Z_1 (Z_1 (Z_1 (Z_1 (Z_1 (Z_1 (Z_1 (Z_1 (Z_1 (Z_1 (Z_1 (Z_1 (Z_1 (Z_1 (Z_1 (Z_1 (Z_1 (Z_1 (Z_1 (Z_1 (Z_1 (Z_1 (Z_1 Z_0))))))))))))))))))))))))))))))))))))))))))))))))))))))))))))))))))))))))))))))))))))))))))))))))))))) (m_0 x_5 n_0)) false)))
(check-sat)
(get-model)
